instances/knapsack/discrete/knapsack_130_4.lp
\ Model knapsack_130_4
\ LP format - for model browsing. Use MPS format to capture full model detail.
\ Signature: 0x8c644a484ac146d4
Minimize
  - 41 x[0] - 94 x[1] - 59 x[2] - 7 x[3] - 49 x[4] - 76 x[5] - 81 x[6]
   - 83 x[7] - 42 x[8] - 66 x[9] - 82 x[10] - 78 x[11] - 90 x[12]
   - 49 x[13] - 94 x[14] - 31 x[15] - 93 x[16] - 21 x[17] - 86 x[18]
   - 21 x[19] - 33 x[20] - 46 x[21] - 79 x[22] - 83 x[23] - 32 x[24]
   - 2 x[25] - 43 x[26] - 15 x[27] - 93 x[28] - 96 x[29] - 68 x[30]
   - 43 x[31] - 7 x[32] - 22 x[33] - 47 x[34] - 52 x[35] - 96 x[36]
   - 94 x[37] - 62 x[38] - 11 x[39] - 99 x[40] - 17 x[41] - 69 x[42]
   - 18 x[43] - 50 x[44] - 90 x[45] - 4 x[46] - 20 x[47] - 12 x[48]
   - 49 x[49] - 74 x[50] - 86 x[51] - 6 x[52] - 88 x[53] - 55 x[54]
   - 81 x[55] - 14 x[56] - 87 x[57] - 3 x[58] - 86 x[59] - 87 x[60]
   - 5 x[61] - 37 x[62] - 17 x[63] - 46 x[64] - 40 x[65] - 84 x[66]
   - 9 x[67] - 64 x[68] - 45 x[69] - 100 x[70] - 94 x[71] - 32 x[72]
   - 61 x[73] - 62 x[74] - 81 x[75] - 29 x[76] - 84 x[77] - 15 x[78]
   - 55 x[79] - 90 x[80] - 13 x[81] - 93 x[82] - 13 x[83] - 60 x[84]
   - 16 x[85] - 85 x[86] - 10 x[87] - 3 x[88] - 46 x[89] - x[90] - 13 x[91]
   - 97 x[92] - 76 x[93] - 43 x[94] - 70 x[95] - 100 x[96] - 95 x[97]
   - 32 x[98] - 44 x[99] - 84 x[100] - 73 x[101] - 82 x[102] - 17 x[103]
   - 70 x[104] - 10 x[105] - 25 x[106] - 20 x[107] - 13 x[108] - 56 x[109]
   - 17 x[110] - 49 x[111] - 41 x[112] - 23 x[113] - 85 x[114] - 8 x[115]
   - 14 x[116] - 64 x[117] - 65 x[118] - 74 x[119] - 69 x[120] - 58 x[121]
   - 25 x[122] - 78 x[123] - 31 x[124] - 80 x[125] - 40 x[126] - 25 x[127]
   - 3 x[128] - 8 x[129]
Subject To
 primal_upper: 15 x[0] + 7 x[1] + 49 x[2] + 2 x[3] + 3 x[4] + 73 x[5]
   + 92 x[6] + 55 x[7] + 44 x[8] + 93 x[9] + 43 x[10] + 14 x[11] + 99 x[12]
   + 87 x[13] + 76 x[14] + 60 x[15] + 16 x[16] + 43 x[17] + 60 x[18]
   + x[19] + 4 x[20] + 79 x[21] + 35 x[22] + 54 x[23] + 44 x[24] + 87 x[25]
   + 45 x[26] + 59 x[27] + 85 x[28] + 66 x[29] + x[30] + 91 x[31]
   + 79 x[32] + 56 x[33] + 99 x[34] + 80 x[35] + 15 x[36] + 12 x[37]
   + 39 x[38] + 14 x[39] + 62 x[40] + 89 x[41] + 65 x[42] + 41 x[43]
   + 2 x[44] + 14 x[45] + 29 x[46] + 93 x[47] + 66 x[48] + 75 x[49]
   + 42 x[50] + 51 x[51] + 4 x[52] + 75 x[53] + 16 x[54] + 47 x[55]
   + 96 x[56] + 46 x[57] + 75 x[58] + 5 x[59] + 32 x[60] + 66 x[61]
   + 23 x[62] + 26 x[63] + 55 x[64] + 39 x[65] + 8 x[66] + 50 x[67]
   + 23 x[68] + 9 x[69] + 61 x[70] + 57 x[71] + x[72] + 66 x[73] + 99 x[74]
   + 72 x[75] + 34 x[76] + 18 x[77] + 92 x[78] + 78 x[79] + 85 x[80]
   + 5 x[81] + 26 x[82] + 5 x[83] + 25 x[84] + 77 x[85] + 31 x[86]
   + 71 x[87] + 41 x[88] + 6 x[89] + 12 x[90] + 56 x[91] + 28 x[92]
   + 83 x[93] + 47 x[94] + 96 x[95] + 16 x[96] + 64 x[97] + 91 x[98]
   + 23 x[99] + 16 x[100] + 75 x[101] + 5 x[102] + 31 x[103] + 92 x[104]
   + 49 x[105] + 70 x[106] + 70 x[107] + 2 x[108] + 44 x[109] + 50 x[110]
   + 6 x[111] + 20 x[112] + 44 x[113] + 96 x[114] + 62 x[115] + 58 x[116]
   + 72 x[117] + 100 x[118] + 28 x[119] + 39 x[120] + 76 x[121] + 31 x[122]
   + 38 x[123] + 68 x[124] + 30 x[125] + 75 x[126] + 95 x[127] + 94 x[128]
   + 30 x[129] + 1.5 r[0] + 0.7 r[1] + 4.9 r[2] + 0.2 r[3] + 0.3 r[4]
   + 7.3 r[5] + 9.2 r[6] + 5.5 r[7] + 4.4 r[8] + 9.3 r[9] + 4.3 r[10]
   + 1.4 r[11] + 9.9 r[12] + 8.7 r[13] + 7.6 r[14] + 6 r[15] + 1.6 r[16]
   + 4.3 r[17] + 6 r[18] + 0.1 r[19] + 0.4 r[20] + 7.9 r[21] + 3.5 r[22]
   + 5.4 r[23] + 4.4 r[24] + 8.7 r[25] + 4.5 r[26] + 5.9 r[27] + 8.5 r[28]
   + 6.6 r[29] + 0.1 r[30] + 9.1 r[31] + 7.9 r[32] + 5.6 r[33] + 9.9 r[34]
   + 8 r[35] + 1.5 r[36] + 1.2 r[37] + 3.9 r[38] + 1.4 r[39] + 6.2 r[40]
   + 8.9 r[41] + 6.5 r[42] + 4.1 r[43] + 0.2 r[44] + 1.4 r[45] + 2.9 r[46]
   + 9.3 r[47] + 6.6 r[48] + 7.5 r[49] + 4.2 r[50] + 5.1 r[51] + 0.4 r[52]
   + 7.5 r[53] + 1.6 r[54] + 4.7 r[55] + 9.6 r[56] + 4.6 r[57] + 7.5 r[58]
   + 0.5 r[59] + 3.2 r[60] + 6.6 r[61] + 2.3 r[62] + 2.6 r[63] + 5.5 r[64]
   + 3.9 r[65] + 0.8 r[66] + 5 r[67] + 2.3 r[68] + 0.9 r[69] + 6.1 r[70]
   + 5.7 r[71] + 0.1 r[72] + 6.6 r[73] + 9.9 r[74] + 7.2 r[75] + 3.4 r[76]
   + 1.8 r[77] + 9.2 r[78] + 7.8 r[79] + 8.5 r[80] + 0.5 r[81] + 2.6 r[82]
   + 0.5 r[83] + 2.5 r[84] + 7.7 r[85] + 3.1 r[86] + 7.1 r[87] + 4.1 r[88]
   + 0.6 r[89] + 1.2 r[90] + 5.6 r[91] + 2.8 r[92] + 8.3 r[93] + 4.7 r[94]
   + 9.6 r[95] + 1.6 r[96] + 6.4 r[97] + 9.1 r[98] + 2.3 r[99] + 1.6 r[100]
   + 7.5 r[101] + 0.5 r[102] + 3.1 r[103] + 9.2 r[104] + 4.9 r[105]
   + 7 r[106] + 7 r[107] + 0.2 r[108] + 4.4 r[109] + 5 r[110] + 0.6 r[111]
   + 2 r[112] + 4.4 r[113] + 9.6 r[114] + 6.2 r[115] + 5.8 r[116]
   + 7.2 r[117] + 10 r[118] + 2.8 r[119] + 3.9 r[120] + 7.6 r[121]
   + 3.1 r[122] + 3.8 r[123] + 6.8 r[124] + 3 r[125] + 7.5 r[126]
   + 9.5 r[127] + 9.4 r[128] + 3 r[129] <= 603
 primal_lower: 0.0864927338553207 x[0] + 1.955254919813354 x[1]
   + 3.425740541920606 x[2] + 0.8548641506330041 x[3]
   + 2.597990621562552 x[4] + 2.595205266846479 x[5]
   + 1.985850291381024 x[6] + 3.860516235995727 x[7]
   + 0.2986375282720962 x[8] + 0.2467864390644297 x[9]
   + 3.534138861952539 x[10] + 3.292865876830013 x[11]
   + 1.149778671790293 x[12] + 3.066949075969211 x[13]
   + 3.95519105900676 x[14] + 1.078372061555618 x[15]
   + 4.153924478175157 x[16] + 0.6102701132228168 x[17]
   + 2.013781611013434 x[18] + 4.407557655550954 x[19]
   + 3.302864292650765 x[20] + 1.548306803169906 x[21]
   + 0.5654913501013767 x[22] + 0.9494646626194686 x[23]
   + 3.93061190263916 x[24] + 1.849819082933122 x[25]
   + 3.31640862324808 x[26] + 2.098390928879779 x[27]
   + 3.677806288486177 x[28] + 4.055467396176082 x[29]
   + 2.345383895197483 x[30] + 2.272854300973855 x[31]
   + 3.454566669682943 x[32] + 1.813286113256901 x[33]
   + 3.66764667388344 x[34] + 1.390693762479584 x[35]
   + 0.4565485054275256 x[36] + 4.210635542652164 x[37]
   + 2.915663690028856 x[38] + 0.8717368573276656 x[39]
   + 3.453586049003396 x[40] + 1.763521900375752 x[41]
   + 0.8281747883982268 x[42] + 3.845329071384348 x[43]
   + 2.985425733632067 x[44] + 1.537666286833732 x[45]
   + 0.2643721376405614 x[46] + 2.759139009526895 x[47]
   + 3.325142000879366 x[48] + 1.381253282390725 x[49]
   + 1.41016283358301 x[50] + 1.38421163938684 x[51]
   + 1.119719167981202 x[52] + 2.56830103967745 x[53]
   + 2.358452343247783 x[54] + 0.9190327663057191 x[55]
   + 3.387981399293976 x[56] + 2.417268217743526 x[57]
   + 3.025837095837427 x[58] + 1.978435189610259 x[59]
   + 2.323549170371466 x[60] + 4.264543465974977 x[61]
   + 1.628640866189506 x[62] + 3.000055564250214 x[63]
   + 1.986726389116761 x[64] + 1.423321290173376 x[65]
   + 1.686445786980576 x[66] + 2.455753546558058 x[67]
   + 0.0749877657633685 x[68] + 2.433568327916857 x[69]
   + 4.459993353581869 x[70] + 1.671531292545925 x[71]
   + 0.8693476448264332 x[72] + 2.648567738948652 x[73]
   + 3.738566605382051 x[74] + 1.591257214497534 x[75]
   + 3.779047872032175 x[76] + 3.020421582139422 x[77]
   + 2.9039026762247 x[78] + 1.482784335891049 x[79]
   + 1.977511015633851 x[80] + 4.105133595125505 x[81]
   + 3.396123280250787 x[82] + 0.665047873602119 x[83]
   + 0.4045568274442723 x[84] + 2.123355875349555 x[85]
   + 2.883466924941636 x[86] + 0.3212652546350094 x[87]
   + 4.420086212770616 x[88] + 2.109486453546257 x[89]
   + 0.1000703143855377 x[90] + 0.0336751255127795 x[91]
   + 0.6670851231213468 x[92] + 1.808210854402415 x[93]
   + 0.8804896719998039 x[94] + 4.206224233225581 x[95]
   + 2.679174054133436 x[96] + 2.663281951481173 x[97]
   + 4.045624629257176 x[98] + 1.503477935585118 x[99]
   + 4.371105758979401 x[100] + 1.944331370914459 x[101]
   + 2.321169116755391 x[102] + 1.465107459540875 x[103]
   + 1.345622255703048 x[104] + 0.2106080337280051 x[105]
   + 0.4702528356366337 x[106] + 4.084818175592195 x[107]
   + 1.359901369588042 x[108] + 1.446887103036656 x[109]
   + 0.8840068729543911 x[110] + 4.365309887314747 x[111]
   + 1.086886938851276 x[112] + 3.82477801512888 x[113]
   + 4.221598593870423 x[114] + 1.670026399047404 x[115]
   + 2.136722662276425 x[116] + 0.1089458025785029 x[117]
   + 2.517294688869581 x[118] + 2.218593308441671 x[119]
   + 0.5978230899566086 x[120] + 3.055810094643669 x[121]
   + 0.7435355610758212 x[122] + 0.5851238452716998 x[123]
   + 3.937013890409785 x[124] + 3.035828031108808 x[125]
   + 2.182098967318765 x[126] + 4.210218833106424 x[127]
   + 3.250114947939291 x[128] + 2.369414533092459 x[129] + 36 u[0] + 5 u[1]
   + 39 u[2] + 68 u[3] + 45 u[4] + 74 u[5] + 42 u[6] + 84 u[7] + 6 u[8]
   + 51 u[9] + 36 u[10] + 100 u[11] + 37 u[12] + 93 u[13] + 65 u[14]
   + 85 u[15] + 34 u[16] + 45 u[17] + 38 u[18] + 55 u[19] + 74 u[20]
   + 36 u[21] + 13 u[22] + 15 u[23] + 41 u[24] + 73 u[25] + 27 u[26]
   + 48 u[27] + 6 u[28] + 12 u[29] + 94 u[30] + 88 u[31] + 84 u[32]
   + 34 u[33] + 57 u[34] + 10 u[35] + 17 u[36] + 73 u[37] + 5 u[38]
   + 31 u[39] + 48 u[40] + 34 u[41] + 55 u[42] + 74 u[43] + 16 u[44]
   + 39 u[45] + 34 u[46] + 70 u[47] + 92 u[48] + 81 u[49] + 83 u[50]
   + 57 u[51] + 54 u[52] + 49 u[53] + 53 u[54] + 60 u[55] + 10 u[56]
   + 3 u[57] + 65 u[58] + 15 u[59] + 53 u[60] + 27 u[61] + 4 u[62]
   + 3 u[63] + 92 u[64] + 45 u[65] + 13 u[66] + 99 u[67] + 5 u[68]
   + 86 u[69] + 82 u[70] + 86 u[71] + 19 u[72] + 48 u[73] + 8 u[74]
   + 29 u[75] + 35 u[76] + 36 u[77] + 5 u[78] + 91 u[79] + 86 u[80]
   + 22 u[81] + 31 u[82] + 18 u[83] + 10 u[84] + 46 u[85] + 84 u[86]
   + 81 u[87] + 91 u[88] + 8 u[89] + 13 u[90] + 77 u[91] + 33 u[92]
   + 28 u[93] + 77 u[94] + 38 u[95] + 98 u[96] + 33 u[97] + 77 u[98]
   + 25 u[99] + 6 u[100] + 97 u[101] + 15 u[102] + 97 u[103] + 82 u[104]
   + 39 u[105] + 16 u[106] + 55 u[107] + 71 u[108] + 26 u[109] + 31 u[110]
   + 44 u[111] + 54 u[112] + 18 u[113] + 2 u[114] + 27 u[115] + 96 u[116]
   + 54 u[117] + 10 u[118] + 29 u[119] + 96 u[120] + 25 u[121] + 24 u[122]
   + 87 u[123] + 18 u[124] + 31 u[125] + 76 u[126] + 52 u[127] + 87 u[128]
   + 68 u[129] <= 52031
 mccormick1[0]: - u[0] + r[0] <= 0
 mccormick1[1]: - u[1] + r[1] <= 0
 mccormick1[2]: - u[2] + r[2] <= 0
 mccormick1[3]: - u[3] + r[3] <= 0
 mccormick1[4]: - u[4] + r[4] <= 0
 mccormick1[5]: - u[5] + r[5] <= 0
 mccormick1[6]: - u[6] + r[6] <= 0
 mccormick1[7]: - u[7] + r[7] <= 0
 mccormick1[8]: - u[8] + r[8] <= 0
 mccormick1[9]: - u[9] + r[9] <= 0
 mccormick1[10]: - u[10] + r[10] <= 0
 mccormick1[11]: - u[11] + r[11] <= 0
 mccormick1[12]: - u[12] + r[12] <= 0
 mccormick1[13]: - u[13] + r[13] <= 0
 mccormick1[14]: - u[14] + r[14] <= 0
 mccormick1[15]: - u[15] + r[15] <= 0
 mccormick1[16]: - u[16] + r[16] <= 0
 mccormick1[17]: - u[17] + r[17] <= 0
 mccormick1[18]: - u[18] + r[18] <= 0
 mccormick1[19]: - u[19] + r[19] <= 0
 mccormick1[20]: - u[20] + r[20] <= 0
 mccormick1[21]: - u[21] + r[21] <= 0
 mccormick1[22]: - u[22] + r[22] <= 0
 mccormick1[23]: - u[23] + r[23] <= 0
 mccormick1[24]: - u[24] + r[24] <= 0
 mccormick1[25]: - u[25] + r[25] <= 0
 mccormick1[26]: - u[26] + r[26] <= 0
 mccormick1[27]: - u[27] + r[27] <= 0
 mccormick1[28]: - u[28] + r[28] <= 0
 mccormick1[29]: - u[29] + r[29] <= 0
 mccormick1[30]: - u[30] + r[30] <= 0
 mccormick1[31]: - u[31] + r[31] <= 0
 mccormick1[32]: - u[32] + r[32] <= 0
 mccormick1[33]: - u[33] + r[33] <= 0
 mccormick1[34]: - u[34] + r[34] <= 0
 mccormick1[35]: - u[35] + r[35] <= 0
 mccormick1[36]: - u[36] + r[36] <= 0
 mccormick1[37]: - u[37] + r[37] <= 0
 mccormick1[38]: - u[38] + r[38] <= 0
 mccormick1[39]: - u[39] + r[39] <= 0
 mccormick1[40]: - u[40] + r[40] <= 0
 mccormick1[41]: - u[41] + r[41] <= 0
 mccormick1[42]: - u[42] + r[42] <= 0
 mccormick1[43]: - u[43] + r[43] <= 0
 mccormick1[44]: - u[44] + r[44] <= 0
 mccormick1[45]: - u[45] + r[45] <= 0
 mccormick1[46]: - u[46] + r[46] <= 0
 mccormick1[47]: - u[47] + r[47] <= 0
 mccormick1[48]: - u[48] + r[48] <= 0
 mccormick1[49]: - u[49] + r[49] <= 0
 mccormick1[50]: - u[50] + r[50] <= 0
 mccormick1[51]: - u[51] + r[51] <= 0
 mccormick1[52]: - u[52] + r[52] <= 0
 mccormick1[53]: - u[53] + r[53] <= 0
 mccormick1[54]: - u[54] + r[54] <= 0
 mccormick1[55]: - u[55] + r[55] <= 0
 mccormick1[56]: - u[56] + r[56] <= 0
 mccormick1[57]: - u[57] + r[57] <= 0
 mccormick1[58]: - u[58] + r[58] <= 0
 mccormick1[59]: - u[59] + r[59] <= 0
 mccormick1[60]: - u[60] + r[60] <= 0
 mccormick1[61]: - u[61] + r[61] <= 0
 mccormick1[62]: - u[62] + r[62] <= 0
 mccormick1[63]: - u[63] + r[63] <= 0
 mccormick1[64]: - u[64] + r[64] <= 0
 mccormick1[65]: - u[65] + r[65] <= 0
 mccormick1[66]: - u[66] + r[66] <= 0
 mccormick1[67]: - u[67] + r[67] <= 0
 mccormick1[68]: - u[68] + r[68] <= 0
 mccormick1[69]: - u[69] + r[69] <= 0
 mccormick1[70]: - u[70] + r[70] <= 0
 mccormick1[71]: - u[71] + r[71] <= 0
 mccormick1[72]: - u[72] + r[72] <= 0
 mccormick1[73]: - u[73] + r[73] <= 0
 mccormick1[74]: - u[74] + r[74] <= 0
 mccormick1[75]: - u[75] + r[75] <= 0
 mccormick1[76]: - u[76] + r[76] <= 0
 mccormick1[77]: - u[77] + r[77] <= 0
 mccormick1[78]: - u[78] + r[78] <= 0
 mccormick1[79]: - u[79] + r[79] <= 0
 mccormick1[80]: - u[80] + r[80] <= 0
 mccormick1[81]: - u[81] + r[81] <= 0
 mccormick1[82]: - u[82] + r[82] <= 0
 mccormick1[83]: - u[83] + r[83] <= 0
 mccormick1[84]: - u[84] + r[84] <= 0
 mccormick1[85]: - u[85] + r[85] <= 0
 mccormick1[86]: - u[86] + r[86] <= 0
 mccormick1[87]: - u[87] + r[87] <= 0
 mccormick1[88]: - u[88] + r[88] <= 0
 mccormick1[89]: - u[89] + r[89] <= 0
 mccormick1[90]: - u[90] + r[90] <= 0
 mccormick1[91]: - u[91] + r[91] <= 0
 mccormick1[92]: - u[92] + r[92] <= 0
 mccormick1[93]: - u[93] + r[93] <= 0
 mccormick1[94]: - u[94] + r[94] <= 0
 mccormick1[95]: - u[95] + r[95] <= 0
 mccormick1[96]: - u[96] + r[96] <= 0
 mccormick1[97]: - u[97] + r[97] <= 0
 mccormick1[98]: - u[98] + r[98] <= 0
 mccormick1[99]: - u[99] + r[99] <= 0
 mccormick1[100]: - u[100] + r[100] <= 0
 mccormick1[101]: - u[101] + r[101] <= 0
 mccormick1[102]: - u[102] + r[102] <= 0
 mccormick1[103]: - u[103] + r[103] <= 0
 mccormick1[104]: - u[104] + r[104] <= 0
 mccormick1[105]: - u[105] + r[105] <= 0
 mccormick1[106]: - u[106] + r[106] <= 0
 mccormick1[107]: - u[107] + r[107] <= 0
 mccormick1[108]: - u[108] + r[108] <= 0
 mccormick1[109]: - u[109] + r[109] <= 0
 mccormick1[110]: - u[110] + r[110] <= 0
 mccormick1[111]: - u[111] + r[111] <= 0
 mccormick1[112]: - u[112] + r[112] <= 0
 mccormick1[113]: - u[113] + r[113] <= 0
 mccormick1[114]: - u[114] + r[114] <= 0
 mccormick1[115]: - u[115] + r[115] <= 0
 mccormick1[116]: - u[116] + r[116] <= 0
 mccormick1[117]: - u[117] + r[117] <= 0
 mccormick1[118]: - u[118] + r[118] <= 0
 mccormick1[119]: - u[119] + r[119] <= 0
 mccormick1[120]: - u[120] + r[120] <= 0
 mccormick1[121]: - u[121] + r[121] <= 0
 mccormick1[122]: - u[122] + r[122] <= 0
 mccormick1[123]: - u[123] + r[123] <= 0
 mccormick1[124]: - u[124] + r[124] <= 0
 mccormick1[125]: - u[125] + r[125] <= 0
 mccormick1[126]: - u[126] + r[126] <= 0
 mccormick1[127]: - u[127] + r[127] <= 0
 mccormick1[128]: - u[128] + r[128] <= 0
 mccormick1[129]: - u[129] + r[129] <= 0
 mccormick2[0]: - x[0] + r[0] <= 0
 mccormick2[1]: - x[1] + r[1] <= 0
 mccormick2[2]: - x[2] + r[2] <= 0
 mccormick2[3]: - x[3] + r[3] <= 0
 mccormick2[4]: - x[4] + r[4] <= 0
 mccormick2[5]: - x[5] + r[5] <= 0
 mccormick2[6]: - x[6] + r[6] <= 0
 mccormick2[7]: - x[7] + r[7] <= 0
 mccormick2[8]: - x[8] + r[8] <= 0
 mccormick2[9]: - x[9] + r[9] <= 0
 mccormick2[10]: - x[10] + r[10] <= 0
 mccormick2[11]: - x[11] + r[11] <= 0
 mccormick2[12]: - x[12] + r[12] <= 0
 mccormick2[13]: - x[13] + r[13] <= 0
 mccormick2[14]: - x[14] + r[14] <= 0
 mccormick2[15]: - x[15] + r[15] <= 0
 mccormick2[16]: - x[16] + r[16] <= 0
 mccormick2[17]: - x[17] + r[17] <= 0
 mccormick2[18]: - x[18] + r[18] <= 0
 mccormick2[19]: - x[19] + r[19] <= 0
 mccormick2[20]: - x[20] + r[20] <= 0
 mccormick2[21]: - x[21] + r[21] <= 0
 mccormick2[22]: - x[22] + r[22] <= 0
 mccormick2[23]: - x[23] + r[23] <= 0
 mccormick2[24]: - x[24] + r[24] <= 0
 mccormick2[25]: - x[25] + r[25] <= 0
 mccormick2[26]: - x[26] + r[26] <= 0
 mccormick2[27]: - x[27] + r[27] <= 0
 mccormick2[28]: - x[28] + r[28] <= 0
 mccormick2[29]: - x[29] + r[29] <= 0
 mccormick2[30]: - x[30] + r[30] <= 0
 mccormick2[31]: - x[31] + r[31] <= 0
 mccormick2[32]: - x[32] + r[32] <= 0
 mccormick2[33]: - x[33] + r[33] <= 0
 mccormick2[34]: - x[34] + r[34] <= 0
 mccormick2[35]: - x[35] + r[35] <= 0
 mccormick2[36]: - x[36] + r[36] <= 0
 mccormick2[37]: - x[37] + r[37] <= 0
 mccormick2[38]: - x[38] + r[38] <= 0
 mccormick2[39]: - x[39] + r[39] <= 0
 mccormick2[40]: - x[40] + r[40] <= 0
 mccormick2[41]: - x[41] + r[41] <= 0
 mccormick2[42]: - x[42] + r[42] <= 0
 mccormick2[43]: - x[43] + r[43] <= 0
 mccormick2[44]: - x[44] + r[44] <= 0
 mccormick2[45]: - x[45] + r[45] <= 0
 mccormick2[46]: - x[46] + r[46] <= 0
 mccormick2[47]: - x[47] + r[47] <= 0
 mccormick2[48]: - x[48] + r[48] <= 0
 mccormick2[49]: - x[49] + r[49] <= 0
 mccormick2[50]: - x[50] + r[50] <= 0
 mccormick2[51]: - x[51] + r[51] <= 0
 mccormick2[52]: - x[52] + r[52] <= 0
 mccormick2[53]: - x[53] + r[53] <= 0
 mccormick2[54]: - x[54] + r[54] <= 0
 mccormick2[55]: - x[55] + r[55] <= 0
 mccormick2[56]: - x[56] + r[56] <= 0
 mccormick2[57]: - x[57] + r[57] <= 0
 mccormick2[58]: - x[58] + r[58] <= 0
 mccormick2[59]: - x[59] + r[59] <= 0
 mccormick2[60]: - x[60] + r[60] <= 0
 mccormick2[61]: - x[61] + r[61] <= 0
 mccormick2[62]: - x[62] + r[62] <= 0
 mccormick2[63]: - x[63] + r[63] <= 0
 mccormick2[64]: - x[64] + r[64] <= 0
 mccormick2[65]: - x[65] + r[65] <= 0
 mccormick2[66]: - x[66] + r[66] <= 0
 mccormick2[67]: - x[67] + r[67] <= 0
 mccormick2[68]: - x[68] + r[68] <= 0
 mccormick2[69]: - x[69] + r[69] <= 0
 mccormick2[70]: - x[70] + r[70] <= 0
 mccormick2[71]: - x[71] + r[71] <= 0
 mccormick2[72]: - x[72] + r[72] <= 0
 mccormick2[73]: - x[73] + r[73] <= 0
 mccormick2[74]: - x[74] + r[74] <= 0
 mccormick2[75]: - x[75] + r[75] <= 0
 mccormick2[76]: - x[76] + r[76] <= 0
 mccormick2[77]: - x[77] + r[77] <= 0
 mccormick2[78]: - x[78] + r[78] <= 0
 mccormick2[79]: - x[79] + r[79] <= 0
 mccormick2[80]: - x[80] + r[80] <= 0
 mccormick2[81]: - x[81] + r[81] <= 0
 mccormick2[82]: - x[82] + r[82] <= 0
 mccormick2[83]: - x[83] + r[83] <= 0
 mccormick2[84]: - x[84] + r[84] <= 0
 mccormick2[85]: - x[85] + r[85] <= 0
 mccormick2[86]: - x[86] + r[86] <= 0
 mccormick2[87]: - x[87] + r[87] <= 0
 mccormick2[88]: - x[88] + r[88] <= 0
 mccormick2[89]: - x[89] + r[89] <= 0
 mccormick2[90]: - x[90] + r[90] <= 0
 mccormick2[91]: - x[91] + r[91] <= 0
 mccormick2[92]: - x[92] + r[92] <= 0
 mccormick2[93]: - x[93] + r[93] <= 0
 mccormick2[94]: - x[94] + r[94] <= 0
 mccormick2[95]: - x[95] + r[95] <= 0
 mccormick2[96]: - x[96] + r[96] <= 0
 mccormick2[97]: - x[97] + r[97] <= 0
 mccormick2[98]: - x[98] + r[98] <= 0
 mccormick2[99]: - x[99] + r[99] <= 0
 mccormick2[100]: - x[100] + r[100] <= 0
 mccormick2[101]: - x[101] + r[101] <= 0
 mccormick2[102]: - x[102] + r[102] <= 0
 mccormick2[103]: - x[103] + r[103] <= 0
 mccormick2[104]: - x[104] + r[104] <= 0
 mccormick2[105]: - x[105] + r[105] <= 0
 mccormick2[106]: - x[106] + r[106] <= 0
 mccormick2[107]: - x[107] + r[107] <= 0
 mccormick2[108]: - x[108] + r[108] <= 0
 mccormick2[109]: - x[109] + r[109] <= 0
 mccormick2[110]: - x[110] + r[110] <= 0
 mccormick2[111]: - x[111] + r[111] <= 0
 mccormick2[112]: - x[112] + r[112] <= 0
 mccormick2[113]: - x[113] + r[113] <= 0
 mccormick2[114]: - x[114] + r[114] <= 0
 mccormick2[115]: - x[115] + r[115] <= 0
 mccormick2[116]: - x[116] + r[116] <= 0
 mccormick2[117]: - x[117] + r[117] <= 0
 mccormick2[118]: - x[118] + r[118] <= 0
 mccormick2[119]: - x[119] + r[119] <= 0
 mccormick2[120]: - x[120] + r[120] <= 0
 mccormick2[121]: - x[121] + r[121] <= 0
 mccormick2[122]: - x[122] + r[122] <= 0
 mccormick2[123]: - x[123] + r[123] <= 0
 mccormick2[124]: - x[124] + r[124] <= 0
 mccormick2[125]: - x[125] + r[125] <= 0
 mccormick2[126]: - x[126] + r[126] <= 0
 mccormick2[127]: - x[127] + r[127] <= 0
 mccormick2[128]: - x[128] + r[128] <= 0
 mccormick2[129]: - x[129] + r[129] <= 0
 mccormick3[0]: x[0] + u[0] - r[0] <= 1
 mccormick3[1]: x[1] + u[1] - r[1] <= 1
 mccormick3[2]: x[2] + u[2] - r[2] <= 1
 mccormick3[3]: x[3] + u[3] - r[3] <= 1
 mccormick3[4]: x[4] + u[4] - r[4] <= 1
 mccormick3[5]: x[5] + u[5] - r[5] <= 1
 mccormick3[6]: x[6] + u[6] - r[6] <= 1
 mccormick3[7]: x[7] + u[7] - r[7] <= 1
 mccormick3[8]: x[8] + u[8] - r[8] <= 1
 mccormick3[9]: x[9] + u[9] - r[9] <= 1
 mccormick3[10]: x[10] + u[10] - r[10] <= 1
 mccormick3[11]: x[11] + u[11] - r[11] <= 1
 mccormick3[12]: x[12] + u[12] - r[12] <= 1
 mccormick3[13]: x[13] + u[13] - r[13] <= 1
 mccormick3[14]: x[14] + u[14] - r[14] <= 1
 mccormick3[15]: x[15] + u[15] - r[15] <= 1
 mccormick3[16]: x[16] + u[16] - r[16] <= 1
 mccormick3[17]: x[17] + u[17] - r[17] <= 1
 mccormick3[18]: x[18] + u[18] - r[18] <= 1
 mccormick3[19]: x[19] + u[19] - r[19] <= 1
 mccormick3[20]: x[20] + u[20] - r[20] <= 1
 mccormick3[21]: x[21] + u[21] - r[21] <= 1
 mccormick3[22]: x[22] + u[22] - r[22] <= 1
 mccormick3[23]: x[23] + u[23] - r[23] <= 1
 mccormick3[24]: x[24] + u[24] - r[24] <= 1
 mccormick3[25]: x[25] + u[25] - r[25] <= 1
 mccormick3[26]: x[26] + u[26] - r[26] <= 1
 mccormick3[27]: x[27] + u[27] - r[27] <= 1
 mccormick3[28]: x[28] + u[28] - r[28] <= 1
 mccormick3[29]: x[29] + u[29] - r[29] <= 1
 mccormick3[30]: x[30] + u[30] - r[30] <= 1
 mccormick3[31]: x[31] + u[31] - r[31] <= 1
 mccormick3[32]: x[32] + u[32] - r[32] <= 1
 mccormick3[33]: x[33] + u[33] - r[33] <= 1
 mccormick3[34]: x[34] + u[34] - r[34] <= 1
 mccormick3[35]: x[35] + u[35] - r[35] <= 1
 mccormick3[36]: x[36] + u[36] - r[36] <= 1
 mccormick3[37]: x[37] + u[37] - r[37] <= 1
 mccormick3[38]: x[38] + u[38] - r[38] <= 1
 mccormick3[39]: x[39] + u[39] - r[39] <= 1
 mccormick3[40]: x[40] + u[40] - r[40] <= 1
 mccormick3[41]: x[41] + u[41] - r[41] <= 1
 mccormick3[42]: x[42] + u[42] - r[42] <= 1
 mccormick3[43]: x[43] + u[43] - r[43] <= 1
 mccormick3[44]: x[44] + u[44] - r[44] <= 1
 mccormick3[45]: x[45] + u[45] - r[45] <= 1
 mccormick3[46]: x[46] + u[46] - r[46] <= 1
 mccormick3[47]: x[47] + u[47] - r[47] <= 1
 mccormick3[48]: x[48] + u[48] - r[48] <= 1
 mccormick3[49]: x[49] + u[49] - r[49] <= 1
 mccormick3[50]: x[50] + u[50] - r[50] <= 1
 mccormick3[51]: x[51] + u[51] - r[51] <= 1
 mccormick3[52]: x[52] + u[52] - r[52] <= 1
 mccormick3[53]: x[53] + u[53] - r[53] <= 1
 mccormick3[54]: x[54] + u[54] - r[54] <= 1
 mccormick3[55]: x[55] + u[55] - r[55] <= 1
 mccormick3[56]: x[56] + u[56] - r[56] <= 1
 mccormick3[57]: x[57] + u[57] - r[57] <= 1
 mccormick3[58]: x[58] + u[58] - r[58] <= 1
 mccormick3[59]: x[59] + u[59] - r[59] <= 1
 mccormick3[60]: x[60] + u[60] - r[60] <= 1
 mccormick3[61]: x[61] + u[61] - r[61] <= 1
 mccormick3[62]: x[62] + u[62] - r[62] <= 1
 mccormick3[63]: x[63] + u[63] - r[63] <= 1
 mccormick3[64]: x[64] + u[64] - r[64] <= 1
 mccormick3[65]: x[65] + u[65] - r[65] <= 1
 mccormick3[66]: x[66] + u[66] - r[66] <= 1
 mccormick3[67]: x[67] + u[67] - r[67] <= 1
 mccormick3[68]: x[68] + u[68] - r[68] <= 1
 mccormick3[69]: x[69] + u[69] - r[69] <= 1
 mccormick3[70]: x[70] + u[70] - r[70] <= 1
 mccormick3[71]: x[71] + u[71] - r[71] <= 1
 mccormick3[72]: x[72] + u[72] - r[72] <= 1
 mccormick3[73]: x[73] + u[73] - r[73] <= 1
 mccormick3[74]: x[74] + u[74] - r[74] <= 1
 mccormick3[75]: x[75] + u[75] - r[75] <= 1
 mccormick3[76]: x[76] + u[76] - r[76] <= 1
 mccormick3[77]: x[77] + u[77] - r[77] <= 1
 mccormick3[78]: x[78] + u[78] - r[78] <= 1
 mccormick3[79]: x[79] + u[79] - r[79] <= 1
 mccormick3[80]: x[80] + u[80] - r[80] <= 1
 mccormick3[81]: x[81] + u[81] - r[81] <= 1
 mccormick3[82]: x[82] + u[82] - r[82] <= 1
 mccormick3[83]: x[83] + u[83] - r[83] <= 1
 mccormick3[84]: x[84] + u[84] - r[84] <= 1
 mccormick3[85]: x[85] + u[85] - r[85] <= 1
 mccormick3[86]: x[86] + u[86] - r[86] <= 1
 mccormick3[87]: x[87] + u[87] - r[87] <= 1
 mccormick3[88]: x[88] + u[88] - r[88] <= 1
 mccormick3[89]: x[89] + u[89] - r[89] <= 1
 mccormick3[90]: x[90] + u[90] - r[90] <= 1
 mccormick3[91]: x[91] + u[91] - r[91] <= 1
 mccormick3[92]: x[92] + u[92] - r[92] <= 1
 mccormick3[93]: x[93] + u[93] - r[93] <= 1
 mccormick3[94]: x[94] + u[94] - r[94] <= 1
 mccormick3[95]: x[95] + u[95] - r[95] <= 1
 mccormick3[96]: x[96] + u[96] - r[96] <= 1
 mccormick3[97]: x[97] + u[97] - r[97] <= 1
 mccormick3[98]: x[98] + u[98] - r[98] <= 1
 mccormick3[99]: x[99] + u[99] - r[99] <= 1
 mccormick3[100]: x[100] + u[100] - r[100] <= 1
 mccormick3[101]: x[101] + u[101] - r[101] <= 1
 mccormick3[102]: x[102] + u[102] - r[102] <= 1
 mccormick3[103]: x[103] + u[103] - r[103] <= 1
 mccormick3[104]: x[104] + u[104] - r[104] <= 1
 mccormick3[105]: x[105] + u[105] - r[105] <= 1
 mccormick3[106]: x[106] + u[106] - r[106] <= 1
 mccormick3[107]: x[107] + u[107] - r[107] <= 1
 mccormick3[108]: x[108] + u[108] - r[108] <= 1
 mccormick3[109]: x[109] + u[109] - r[109] <= 1
 mccormick3[110]: x[110] + u[110] - r[110] <= 1
 mccormick3[111]: x[111] + u[111] - r[111] <= 1
 mccormick3[112]: x[112] + u[112] - r[112] <= 1
 mccormick3[113]: x[113] + u[113] - r[113] <= 1
 mccormick3[114]: x[114] + u[114] - r[114] <= 1
 mccormick3[115]: x[115] + u[115] - r[115] <= 1
 mccormick3[116]: x[116] + u[116] - r[116] <= 1
 mccormick3[117]: x[117] + u[117] - r[117] <= 1
 mccormick3[118]: x[118] + u[118] - r[118] <= 1
 mccormick3[119]: x[119] + u[119] - r[119] <= 1
 mccormick3[120]: x[120] + u[120] - r[120] <= 1
 mccormick3[121]: x[121] + u[121] - r[121] <= 1
 mccormick3[122]: x[122] + u[122] - r[122] <= 1
 mccormick3[123]: x[123] + u[123] - r[123] <= 1
 mccormick3[124]: x[124] + u[124] - r[124] <= 1
 mccormick3[125]: x[125] + u[125] - r[125] <= 1
 mccormick3[126]: x[126] + u[126] - r[126] <= 1
 mccormick3[127]: x[127] + u[127] - r[127] <= 1
 mccormick3[128]: x[128] + u[128] - r[128] <= 1
 mccormick3[129]: x[129] + u[129] - r[129] <= 1
Bounds
Binaries
 x[0] x[1] x[2] x[3] x[4] x[5] x[6] x[7] x[8] x[9] x[10] x[11] x[12] x[13]
 x[14] x[15] x[16] x[17] x[18] x[19] x[20] x[21] x[22] x[23] x[24] x[25]
 x[26] x[27] x[28] x[29] x[30] x[31] x[32] x[33] x[34] x[35] x[36] x[37]
 x[38] x[39] x[40] x[41] x[42] x[43] x[44] x[45] x[46] x[47] x[48] x[49]
 x[50] x[51] x[52] x[53] x[54] x[55] x[56] x[57] x[58] x[59] x[60] x[61]
 x[62] x[63] x[64] x[65] x[66] x[67] x[68] x[69] x[70] x[71] x[72] x[73]
 x[74] x[75] x[76] x[77] x[78] x[79] x[80] x[81] x[82] x[83] x[84] x[85]
 x[86] x[87] x[88] x[89] x[90] x[91] x[92] x[93] x[94] x[95] x[96] x[97]
 x[98] x[99] x[100] x[101] x[102] x[103] x[104] x[105] x[106] x[107] x[108]
 x[109] x[110] x[111] x[112] x[113] x[114] x[115] x[116] x[117] x[118]
 x[119] x[120] x[121] x[122] x[123] x[124] x[125] x[126] x[127] x[128]
 x[129] u[0] u[1] u[2] u[3] u[4] u[5] u[6] u[7] u[8] u[9] u[10] u[11] u[12]
 u[13] u[14] u[15] u[16] u[17] u[18] u[19] u[20] u[21] u[22] u[23] u[24]
 u[25] u[26] u[27] u[28] u[29] u[30] u[31] u[32] u[33] u[34] u[35] u[36]
 u[37] u[38] u[39] u[40] u[41] u[42] u[43] u[44] u[45] u[46] u[47] u[48]
 u[49] u[50] u[51] u[52] u[53] u[54] u[55] u[56] u[57] u[58] u[59] u[60]
 u[61] u[62] u[63] u[64] u[65] u[66] u[67] u[68] u[69] u[70] u[71] u[72]
 u[73] u[74] u[75] u[76] u[77] u[78] u[79] u[80] u[81] u[82] u[83] u[84]
 u[85] u[86] u[87] u[88] u[89] u[90] u[91] u[92] u[93] u[94] u[95] u[96]
 u[97] u[98] u[99] u[100] u[101] u[102] u[103] u[104] u[105] u[106] u[107]
 u[108] u[109] u[110] u[111] u[112] u[113] u[114] u[115] u[116] u[117]
 u[118] u[119] u[120] u[121] u[122] u[123] u[124] u[125] u[126] u[127]
 u[128] u[129] r[0] r[1] r[2] r[3] r[4] r[5] r[6] r[7] r[8] r[9] r[10]
 r[11] r[12] r[13] r[14] r[15] r[16] r[17] r[18] r[19] r[20] r[21] r[22]
 r[23] r[24] r[25] r[26] r[27] r[28] r[29] r[30] r[31] r[32] r[33] r[34]
 r[35] r[36] r[37] r[38] r[39] r[40] r[41] r[42] r[43] r[44] r[45] r[46]
 r[47] r[48] r[49] r[50] r[51] r[52] r[53] r[54] r[55] r[56] r[57] r[58]
 r[59] r[60] r[61] r[62] r[63] r[64] r[65] r[66] r[67] r[68] r[69] r[70]
 r[71] r[72] r[73] r[74] r[75] r[76] r[77] r[78] r[79] r[80] r[81] r[82]
 r[83] r[84] r[85] r[86] r[87] r[88] r[89] r[90] r[91] r[92] r[93] r[94]
 r[95] r[96] r[97] r[98] r[99] r[100] r[101] r[102] r[103] r[104] r[105]
 r[106] r[107] r[108] r[109] r[110] r[111] r[112] r[113] r[114] r[115]
 r[116] r[117] r[118] r[119] r[120] r[121] r[122] r[123] r[124] r[125]
 r[126] r[127] r[128] r[129]
End
