instances/knapsack/discrete_knapsack_uncertainty/knapsack_130_4.kp
40592
130
603

15 1.5 41
7 0.7 94
49 4.9 59
2 0.2 7
3 0.3 49
73 7.3 76
92 9.2 81
55 5.5 83
44 4.4 42
93 9.3 66
43 4.3 82
14 1.4 78
99 9.9 90
87 8.7 49
76 7.6 94
60 6.0 31
16 1.6 93
43 4.3 21
60 6.0 86
1 0.1 21
4 0.4 33
79 7.9 46
35 3.5 79
54 5.4 83
44 4.4 32
87 8.7 2
45 4.5 43
59 5.9 15
85 8.5 93
66 6.6 96
1 0.1 68
91 9.1 43
79 7.9 7
56 5.6 22
99 9.9 47
80 8.0 52
15 1.5 96
12 1.2 94
39 3.9 62
14 1.4 11
62 6.2 99
89 8.9 17
65 6.5 69
41 4.1 18
2 0.2 50
14 1.4 90
29 2.9 4
93 9.3 20
66 6.6 12
75 7.5 49
42 4.2 74
51 5.1 86
4 0.4 6
75 7.5 88
16 1.6 55
47 4.7 81
96 9.6 14
46 4.6 87
75 7.5 3
5 0.5 86
32 3.2 87
66 6.6 5
23 2.3 37
26 2.6 17
55 5.5 46
39 3.9 40
8 0.8 84
50 5.0 9
23 2.3 64
9 0.9 45
61 6.1 100
57 5.7 94
1 0.1 32
66 6.6 61
99 9.9 62
72 7.2 81
34 3.4 29
18 1.8 84
92 9.2 15
78 7.8 55
85 8.5 90
5 0.5 13
26 2.6 93
5 0.5 13
25 2.5 60
77 7.7 16
31 3.1 85
71 7.1 10
41 4.1 3
6 0.6 46
12 1.2 1
56 5.6 13
28 2.8 97
83 8.3 76
47 4.7 43
96 9.6 70
16 1.6 100
64 6.4 95
91 9.1 32
23 2.3 44
16 1.6 84
75 7.5 73
5 0.5 82
31 3.1 17
92 9.2 70
49 4.9 10
70 7.0 25
70 7.0 20
2 0.2 13
44 4.4 56
50 5.0 17
6 0.6 49
20 2.0 41
44 4.4 23
96 9.6 85
62 6.2 8
58 5.8 14
72 7.2 64
100 10.0 65
28 2.8 74
39 3.9 69
76 7.6 58
31 3.1 25
38 3.8 78
68 6.8 31
30 3.0 80
75 7.5 40
95 9.5 25
94 9.4 3
30 3.0 8

52031
585

[0.08649273385532069 1.9552549198133542 3.4257405419206064 0.8548641506330041 2.5979906215625523 2.5952052668464787 1.9858502913810243 3.8605162359957275 0.29863752827209616 0.24678643906442965 3.5341388619525387 3.292865876830013 1.1497786717902927 3.066949075969211 3.9551910590067596 1.078372061555618 4.153924478175157 0.6102701132228168 2.0137816110134343 4.407557655550954 3.302864292650765 1.5483068031699063 0.5654913501013767 0.9494646626194686 3.9306119026391597 1.8498190829331218 3.31640862324808 2.0983909288797786 3.677806288486177 4.055467396176082 2.3453838951974832 2.2728543009738553 3.4545666696829427 1.8132861132569014 3.6676466738834397 1.3906937624795839 0.45654850542752556 4.210635542652164 2.9156636900288557 0.8717368573276656 3.4535860490033956 1.763521900375752 0.8281747883982268 3.845329071384348 2.985425733632067 1.5376662868337316 0.2643721376405614 2.759139009526895 3.3251420008793664 1.3812532823907249 1.4101628335830099 1.3842116393868402 1.1197191679812015 2.5683010396774497 2.3584523432477833 0.9190327663057191 3.3879813992939756 2.417268217743526 3.025837095837427 1.9784351896102594 2.323549170371466 4.264543465974977 1.6286408661895062 3.0000555642502142 1.9867263891167615 1.423321290173376 1.6864457869805762 2.455753546558058 0.07498776576336846 2.433568327916857 4.4599933535818685 1.6715312925459247 0.8693476448264332 2.648567738948652 3.7385666053820508 1.5912572144975343 3.779047872032175 3.020421582139422 2.9039026762246998 1.4827843358910489 1.977511015633851 4.105133595125505 3.3961232802507872 0.665047873602119 0.40455682744427235 2.123355875349555 2.8834669249416356 0.32126525463500943 4.420086212770616 2.109486453546257 0.1000703143855377 0.03367512551277946 0.6670851231213468 1.8082108544024154 0.8804896719998039 4.206224233225581 2.6791740541334357 2.6632819514811725 4.045624629257176 1.503477935585118 4.371105758979401 1.9443313709144587 2.3211691167553905 1.4651074595408753 1.3456222557030484 0.21060803372800513 0.47025283563663367 4.084818175592195 1.3599013695880422 1.4468871030366564 0.8840068729543911 4.365309887314747 1.086886938851276 3.8247780151288797 4.221598593870423 1.6700263990474045 2.1367226622764246 0.10894580257850295 2.517294688869581 2.218593308441671 0.5978230899566086 3.0558100946436695 0.7435355610758212 0.5851238452716998 3.9370138904097853 3.0358280311088075 2.1820989673187654 4.210218833106424 3.250114947939291 2.3694145330924594]

[36 5 39 68 45 74 42 84 6 51 36 100 37 93 65 85 34 45 38 55 74 36 13 15 41 73 27 48 6 12 94 88 84 34 57 10 17 73 5 31 48 34 55 74 16 39 34 70 92 81 83 57 54 49 53 60 10 3 65 15 53 27 4 3 92 45 13 99 5 86 82 86 19 48 8 29 35 36 5 91 86 22 31 18 10 46 84 81 91 8 13 77 33 28 77 38 98 33 77 25 6 97 15 97 82 39 16 55 71 26 31 44 54 18 2 27 96 54 10 29 96 25 24 87 18 31 76 52 87 68]
